NAME          DCAP_2_4_3_300_SS131
ROWS
 N  OBJ
 L  CON1
 L  CON2
 L  CON3
 L  CON4
 L  CON5
 L  CON6
 L  CON7
 L  CON8
 L  CON9
 L  CON10
 L  CON11
 L  CON12
 E  CON13
 E  CON14
 E  CON15
 E  CON16
 E  CON17
 E  CON18
 E  CON19
 E  CON20
 E  CON21
 E  CON22
 E  CON23
 E  CON24
COLUMNS
    x[1,1]    OBJ       6.180167      CON1      1.000000    
    x[1,1]    CON7      -1.000000     CON8      -1.000000   
    x[1,1]    CON9      -1.000000   
    x[1,2]    OBJ       6.563535      CON2      1.000000    
    x[1,2]    CON8      -1.000000     CON9      -1.000000   
    x[1,3]    OBJ       7.443064      CON3      1.000000    
    x[1,3]    CON9      -1.000000   
    x[2,1]    OBJ       6.732585      CON4      1.000000    
    x[2,1]    CON10     -1.000000     CON11     -1.000000   
    x[2,1]    CON12     -1.000000   
    x[2,2]    OBJ       5.039546      CON5      1.000000    
    x[2,2]    CON11     -1.000000     CON12     -1.000000   
    x[2,3]    OBJ       6.054841      CON6      1.000000    
    x[2,3]    CON12     -1.000000   
    MARKER    'MARKER'                'INTORG'
    u[1,1]    OBJ       48.076654     CON1      -1.000000   
    u[1,2]    OBJ       20.066487     CON2      -1.000000   
    u[1,3]    OBJ       32.230043     CON3      -1.000000   
    u[2,1]    OBJ       49.996186     CON4      -1.000000   
    u[2,2]    OBJ       49.466655     CON5      -1.000000   
    u[2,3]    OBJ       27.484319     CON6      -1.000000   
    y[1,1,1]  OBJ       9.833522      CON7      1.115767    
    y[1,1,1]  CON13     1.000000    
    y[1,1,2]  OBJ       5.451049      CON8      0.531144    
    y[1,1,2]  CON14     1.000000    
    y[1,1,3]  OBJ       7.821771      CON9      0.608090    
    y[1,1,3]  CON15     1.000000    
    y[1,2,1]  OBJ       6.579814      CON7      1.360991    
    y[1,2,1]  CON16     1.000000    
    y[1,2,2]  OBJ       7.522490      CON8      0.825406    
    y[1,2,2]  CON17     1.000000    
    y[1,2,3]  OBJ       6.991431      CON9      0.975584    
    y[1,2,3]  CON18     1.000000    
    y[1,3,1]  OBJ       6.225905      CON7      0.638403    
    y[1,3,1]  CON19     1.000000    
    y[1,3,2]  OBJ       7.013958      CON8      1.341833    
    y[1,3,2]  CON20     1.000000    
    y[1,3,3]  OBJ       9.256756      CON9      1.369724    
    y[1,3,3]  CON21     1.000000    
    y[1,4,1]  OBJ       9.665593      CON7      0.936016    
    y[1,4,1]  CON22     1.000000    
    y[1,4,2]  OBJ       8.677895      CON8      0.713438    
    y[1,4,2]  CON23     1.000000    
    y[1,4,3]  OBJ       7.076236      CON9      1.321001    
    y[1,4,3]  CON24     1.000000    
    y[2,1,1]  OBJ       7.798079      CON10     1.115767    
    y[2,1,1]  CON13     1.000000    
    y[2,1,2]  OBJ       8.481201      CON11     0.531144    
    y[2,1,2]  CON14     1.000000    
    y[2,1,3]  OBJ       9.242040      CON12     0.608090    
    y[2,1,3]  CON15     1.000000    
    y[2,2,1]  OBJ       9.399778      CON10     1.360991    
    y[2,2,1]  CON16     1.000000    
    y[2,2,2]  OBJ       6.609088      CON11     0.825406    
    y[2,2,2]  CON17     1.000000    
    y[2,2,3]  OBJ       8.320300      CON12     0.975584    
    y[2,2,3]  CON18     1.000000    
    y[2,3,1]  OBJ       7.677865      CON10     0.638403    
    y[2,3,1]  CON19     1.000000    
    y[2,3,2]  OBJ       8.783200      CON11     1.341833    
    y[2,3,2]  CON20     1.000000    
    y[2,3,3]  OBJ       9.044088      CON12     1.369724    
    y[2,3,3]  CON21     1.000000    
    y[2,4,1]  OBJ       6.013092      CON10     0.936016    
    y[2,4,1]  CON22     1.000000    
    y[2,4,2]  OBJ       5.805304      CON11     0.713438    
    y[2,4,2]  CON23     1.000000    
    y[2,4,3]  OBJ       8.155028      CON12     1.321001    
    y[2,4,3]  CON24     1.000000    
    z[1,1]    OBJ       695.370204    CON13     1.000000    
    z[1,2]    OBJ       772.813656    CON14     1.000000    
    z[1,3]    OBJ       938.250640    CON15     1.000000    
    z[2,1]    OBJ       708.240823    CON16     1.000000    
    z[2,2]    OBJ       592.682545    CON17     1.000000    
    z[2,3]    OBJ       791.600968    CON18     1.000000    
    z[3,1]    OBJ       690.541688    CON19     1.000000    
    z[3,2]    OBJ       877.335517    CON20     1.000000    
    z[3,3]    OBJ       813.810585    CON21     1.000000    
    z[4,1]    OBJ       582.045072    CON22     1.000000    
    z[4,2]    OBJ       855.755850    CON23     1.000000    
    z[4,3]    OBJ       583.368749    CON24     1.000000    
    MARKER    'MARKER'                 'INTEND'
RHS
    RHS       CON1      -0.000000     CON2      -0.000000   
    RHS       CON3      -0.000000     CON4      -0.000000   
    RHS       CON5      -0.000000     CON6      -0.000000   
    RHS       CON7      -0.000000     CON8      -0.000000   
    RHS       CON9      -0.000000     CON10     -0.000000   
    RHS       CON11     -0.000000     CON12     -0.000000   
    RHS       CON13     1.000000      CON14     1.000000    
    RHS       CON15     1.000000      CON16     1.000000    
    RHS       CON17     1.000000      CON18     1.000000    
    RHS       CON19     1.000000      CON20     1.000000    
    RHS       CON21     1.000000      CON22     1.000000    
    RHS       CON23     1.000000      CON24     1.000000    
BOUNDS
 BV BOUND     u[1,1]  
 BV BOUND     u[1,2]  
 BV BOUND     u[1,3]  
 BV BOUND     u[2,1]  
 BV BOUND     u[2,2]  
 BV BOUND     u[2,3]  
 BV BOUND     y[1,1,1]
 BV BOUND     y[1,1,2]
 BV BOUND     y[1,1,3]
 BV BOUND     y[1,2,1]
 BV BOUND     y[1,2,2]
 BV BOUND     y[1,2,3]
 BV BOUND     y[1,3,1]
 BV BOUND     y[1,3,2]
 BV BOUND     y[1,3,3]
 BV BOUND     y[1,4,1]
 BV BOUND     y[1,4,2]
 BV BOUND     y[1,4,3]
 BV BOUND     y[2,1,1]
 BV BOUND     y[2,1,2]
 BV BOUND     y[2,1,3]
 BV BOUND     y[2,2,1]
 BV BOUND     y[2,2,2]
 BV BOUND     y[2,2,3]
 BV BOUND     y[2,3,1]
 BV BOUND     y[2,3,2]
 BV BOUND     y[2,3,3]
 BV BOUND     y[2,4,1]
 BV BOUND     y[2,4,2]
 BV BOUND     y[2,4,3]
 BV BOUND     z[1,1]  
 BV BOUND     z[1,2]  
 BV BOUND     z[1,3]  
 BV BOUND     z[2,1]  
 BV BOUND     z[2,2]  
 BV BOUND     z[2,3]  
 BV BOUND     z[3,1]  
 BV BOUND     z[3,2]  
 BV BOUND     z[3,3]  
 BV BOUND     z[4,1]  
 BV BOUND     z[4,2]  
 BV BOUND     z[4,3]  
ENDATA
